200
 1 420.00 1 29 30 31 32 33 34 35 36 37 38 39 40 41 42 43 44
 2 423.00 11 12 13 68 69 70 71 72 73 74 75 76 77 78 79 80
 3 423.00 11 12 13 103 104 105 106 107 108 109 110 111 112 113 114 115 116 117
 4 423.00 11 12 13 30 31 32 33 34 35 36 37 38 39 40 41 42 43 44
 5 423.00 11 12 13 104 105 106 107 108 109 110 111 112 113 114 115 116 117 118
 6 423.00 11 12 13 167 168 169 170 171 172
 7 420.00 19 167 168 169 170 171 172
 8 420.00 19 31 32 33 34 35 36 37 38 39 40 41 42 43 44 45 46
 9 423.00 25 26 141 142 143 144 145
 10 449.00 25 26 167 168 169 170 171 172
 11 483.00 25 26 27 28 73 74 75 76 77 78 79 80 81 82 83 84 85 86 87
 12 493.00 25 26 27 28 29 73 74 75 76 77 78 79 80 81 82 83 84 85 86 87
 13 490.00 25 26 27 28 29 30 74 75 76 77 78 79 80 81 82 83 84 85 86 87
 14 497.00 25 26 27 28 29 30 143 144 145 146 147 148
 15 456.00 59 60 61 62 63 68 69 70 71 72 73 74 75 76 77 78 79 80
 16 492.00 59 60 61 62 63 103 104 105 106 107 108 109 110 111 112 113 114 115 116 117
 17 497.00 59 60 61 62 63 30 31 32 33 34 35 36 37 38 39 40 41 42 43 44
 18 483.00 59 60 61 62 63 104 105 106 107 108 109 110 111 112 113 114 115 116 117
 19 504.00 59 60 61 62 63 104 105 106 107 108 109 110 111 112 113 114 115 116 117 118
 20 452.00 59 60 61 62 63 64 141 142 143 144 145
 21 517.00 59 60 61 62 63 64 167 168 169 170 171 172
 22 493.00 59 60 61 62 63 64 31 32 33 34 35 36 37 38 39 40 41 42 43 44
 23 531.00 59 60 61 62 63 64 31 32 33 34 35 36 37 38 39 40 41 42 43 44 45 46
 24 490.00 59 60 61 62 63 64 65 106 107 108 109 110 111 112 113 114 115 116 117
 25 513.00 59 60 61 62 63 64 65 106 107 108 109 110 111 112 113 114 115 116 117 118
 26 491.00 59 60 61 62 63 64 65 66 33 34 35 36 37 38 39 40 41 42 43 44
 27 528.00 59 60 61 62 63 64 65 66 33 34 35 36 37 38 39 40 41 42 43 44 45 46
 28 523.00 59 60 61 62 63 64 65 66 67 168 169 170 171 172
 29 528.00 59 60 61 62 63 64 65 66 67 68 35 36 37 38 39 40 41 42 43 44 45 46
 30 518.00 98 99 100 101 102 73 74 75 76 77 78 79 80 81 82 83 84 85 86 87
 31 485.00 137 138 29 30 31 32 33 34 35 36 37 38 39 40 41 42 43 44
 32 434.00 137 138 68 69 70 71 72 73 74 75 76 77 78 79 80
 33 470.00 137 138 103 104 105 106 107 108 109 110 111 112 113 114 115 116 117
 34 475.00 137 138 30 31 32 33 34 35 36 37 38 39 40 41 42 43 44
 35 461.00 137 138 104 105 106 107 108 109 110 111 112 113 114 115 116 117
 36 482.00 137 138 104 105 106 107 108 109 110 111 112 113 114 115 116 117 118
 37 431.00 137 138 141 142 143 144 145
 38 486.00 137 138 139 32 33 34 35 36 37 38 39 40 41 42 43 44
 39 521.00 137 138 139 32 33 34 35 36 37 38 39 40 41 42 43 44 45 46
 40 472.00 137 138 139 106 107 108 109 110 111 112 113 114 115 116 117
 41 493.00 137 138 139 106 107 108 109 110 111 112 113 114 115 116 117 118
 42 466.00 137 138 139 33 34 35 36 37 38 39 40 41 42 43 44
 43 496.00 137 138 139 33 34 35 36 37 38 39 40 41 42 43 44 45 46
 44 505.00 137 138 139 140 35 36 37 38 39 40 41 42 43 44 45 46
 45 518.00 137 138 139 140 74 75 76 77 78 79 80 81 82 83 84 85 86
 46 422.00 165 166 35 36 37 38 39 40 41 42 43 44 45 46
 47 465.00 165 166 35 36 37 38 39 40 41 42 43 44 45 46 47 48 49 50
 48 431.00 165 166 74 75 76 77 78 79 80 81 82 83 84 85 86
 49 454.00 165 166 74 75 76 77 78 79 80 81 82 83 84 85 86 87
 50 458.00 165 166 109 110 111 112 113 114 115 116 117 118 119 120 121 122
 51 467.00 165 166 109 110 111 112 113 114 115 116 117 118 119 120 121 122 123
 52 461.00 165 166 143 144 145 146 147 148
 53 491.00 11 12 13 27 28 29 30 35 36 37 38 39 40 41 42 43 44 45 46 47 48 49 50
 54 490.00 11 12 13 27 28 29 30 109 110 111 112 113 114 115 116 117 118 119 120 121 122 123
 55 493.00 11 12 13 27 28 29 30 143 144 145 146 147 148
 56 483.00 11 12 13 66 67 108 109 110 111 112 113 114 115 116 117 118 119 120 121 122
 57 484.00 11 12 13 140 35 36 37 38 39 40 41 42 43 44 45 46 47 48 49 50
 58 483.00 11 12 13 140 109 110 111 112 113 114 115 116 117 118 119 120 121 122 123
 59 486.00 11 12 13 140 143 144 145 146 147 148
 60 491.00 25 26 66 67 73 74 75 76 77 78 79 80 81 82 83 84 85 86 87
 61 496.00 25 26 140 143 144 145 146 147 148
 62 513.00 25 26 27 28 29 30 74 75 76 77 78 79 80 146 147 148
 63 497.00 59 11 12 13 30 31 32 33 34 35 36 37 38 39 40 41 42 43 44
 64 501.00 59 11 12 13 104 105 106 107 108 109 110 111 112 113 114 115 116 117 118
 65 500.00 59 11 12 13 167 168 169 170 171 172
 66 507.00 59 60 61 62 138 29 30 31 32 33 34 35 36 37 38 39 40 41 42 43 44
 67 497.00 59 60 61 62 138 30 31 32 33 34 35 36 37 38 39 40 41 42 43 44
 68 501.00 59 60 61 62 138 104 105 106 107 108 109 110 111 112 113 114 115 116 117 118
 69 504.00 59 60 61 62 138 139 32 33 34 35 36 37 38 39 40 41 42 43 44
 70 508.00 59 60 61 62 138 139 106 107 108 109 110 111 112 113 114 115 116 117 118
 71 517.00 59 60 61 62 138 139 33 34 35 36 37 38 39 40 41 42 43 44 45 46
 72 504.00 59 60 61 62 165 104 105 106 107 108 109 110 111 112 113 114 115 116 117 118
 73 503.00 59 60 61 62 165 167 168 169 170 171 172
 74 511.00 59 60 61 62 165 31 32 33 34 35 36 37 38 39 40 41 42 43 44 45 46
 75 507.00 59 60 61 62 19 167 168 169 170 171 172
 76 517.00 59 60 61 62 19 31 32 33 34 35 36 37 38 39 40 41 42 43 44 45 46
 77 502.00 59 60 61 62 63 68 69 70 71 72 35 36 37 38 39 40 41 42 43 44
 78 502.00 59 60 61 62 63 103 104 105 33 34 35 36 37 38 39 40 41 42 43 44
 79 502.00 59 60 61 62 63 103 104 105 106 107 35 36 37 38 39 40 41 42 43 44
 80 508.00 59 60 61 62 63 30 31 32 107 108 109 110 111 112 113 114 115 116 117 118
 81 508.00 59 60 61 62 63 30 31 32 33 34 109 110 111 112 113 114 115 116 117 118
 82 506.00 59 60 61 62 63 64 27 28 33 34 35 36 37 38 39 40 41 42 43 44
 83 510.00 59 60 61 62 63 64 27 28 107 108 109 110 111 112 113 114 115 116 117 118
 84 520.00 59 60 61 62 63 64 27 28 168 169 170 171 172
 85 520.00 59 60 61 62 63 64 27 28 29 35 36 37 38 39 40 41 42 43 44 45 46
 86 529.00 59 60 61 62 63 64 141 142 143 144 145 45 46
 87 512.00 98 99 100 101 29 30 74 75 76 77 78 79 80 81 82 83 84 85 86 87
 88 496.00 137 19 31 32 33 34 35 36 37 38 39 40 41 42 43 44 45 46
 89 505.00 137 138 166 35 36 37 38 39 40 41 42 43 44 45 46
 90 514.00 137 138 166 74 75 76 77 78 79 80 81 82 83 84 85 86
 91 512.00 137 138 27 28 33 34 35 36 37 38 39 40 41 42 43 44 45 46
 92 521.00 137 138 27 28 72 73 74 75 76 77 78 79 80 81 82 83 84 85 86
 93 500.00 137 138 27 28 34 35 36 37 38 39 40 41 42 43 44 45 46
 94 511.00 137 138 27 28 73 74 75 76 77 78 79 80 81 82 83 84 85 86
 95 512.00 137 138 27 28 29 34 35 36 37 38 39 40 41 42 43 44 45 46
 96 500.00 137 138 27 28 29 168 169 170 171 172
 97 526.00 137 138 27 28 29 73 74 75 76 77 78 79 80 81 82 83 84 85 86
 98 512.00 137 138 27 28 29 30 35 36 37 38 39 40 41 42 43 44 45 46
 99 521.00 137 138 27 28 29 30 74 75 76 77 78 79 80 81 82 83 84 85 86
 100 501.00 137 138 66 67 168 169 170 171 172
 101 527.00 137 138 66 67 73 74 75 76 77 78 79 80 81 82 83 84 85 86
 102 498.00 137 138 66 67 68 35 36 37 38 39 40 41 42 43 44 45 46
 103 503.00 137 138 140 35 36 37 38 39 40 41 42 43 44 45 46
 104 511.00 137 138 140 74 75 76 77 78 79 80 81 82 83 84 85 86
 105 518.00 137 138 139 29 30 35 36 37 38 39 40 41 42 43 44 45 46
 106 527.00 137 138 139 29 30 74 75 76 77 78 79 80 81 82 83 84 85 86
 107 515.00 137 138 139 106 107 35 36 37 38 39 40 41 42 43 44 45 46
 108 515.00 137 138 139 106 107 108 109 110 111 112 113 114 115 116 117 45 46
 109 512.00 137 138 139 33 34 74 75 76 77 78 79 80 81 82 83 84 85 86
 110 500.00 137 138 139 140 109 110 111 112 113 114 115 116 117 45 46
 111 482.00 165 166 109 110 111 112 113 114 115 116 117 118 173 174
 112 516.00 138 139 140 141 142 173 174 175 176
 113 501.00 138 139 140 141 142 47 48 49 50 51 52 53 54 55
 114 528.00 138 139 140 141 142 47 48 49 50 51 52 53 54 55 56
 115 549.00 138 139 140 141 142 47 48 49 50 51 52 53 54 55 56 57
 116 492.00 165 166 167 45 46 47 48 49 50 51 52 53 54 55 56
 117 509.00 165 166 167 45 46 47 48 49 50 51 52 53 54 55 56 57
 118 521.00 165 166 167 168 173 174 175 176
 119 591.00 25 26 27 28 29 30 31 47 48 49 50 51 52 53 54 55 56 57 58
 120 603.00 25 26 27 28 29 30 31 32 33 34 51 52 53 54 55 56 57 58
 121 547.00 25 26 27 28 29 30 31 32 33 34 2 3
 122 618.00 25 26 27 28 29 30 31 32 33 34 2 3 4
 123 596.00 62 63 64 65 66 67 68 69 70 71 72 51 52 53 54 55 56 57 58
 124 567.00 63 64 65 66 67 68 69 70 71 72 51 52 53 54 55 56 57 58
 125 541.00 63 64 65 66 67 68 69 70 71 72 73 2 3
 126 480.00 137 138 139 140 146 147 148 149
 127 519.00 137 138 139 140 45 46 47 48 49 50 51 52 53 54
 128 596.00 137 138 139 140 45 46 47 48 49 50 51 52 53 54 55
 129 576.00 138 139 140 141 142 51 52 53 54 55 56 57 58
 130 524.00 138 139 140 141 142 2 3
 131 591.00 138 139 140 141 142 2 3 4
 132 470.00 165 166 45 46 47 48 49 50 51 52 53 54 55 56 57
 133 483.00 165 166 167 173 174 175 176
 134 462.00 165 166 167 47 48 49 50 51 52 53 54 55 56
 135 479.00 165 166 167 47 48 49 50 51 52 53 54 55 56 57
 136 553.00 165 166 167 47 48 49 50 51 52 53 54 55 56 57 58
 137 500.00 165 166 167 168 47 48 49 50 51 52 53 54 55 56
 138 520.00 165 166 167 168 47 48 49 50 51 52 53 54 55 56 57
 139 548.00 165 166 167 168 51 52 53 54 55 56 57 58
 140 499.00 165 166 167 168 2 3
 141 562.00 165 166 167 168 2 3 4
 142 548.00 25 26 27 28 47 48 49 50 51 52 53 54 55 56 57 58
 143 558.00 25 26 27 28 29 47 48 49 50 51 52 53 54 55 56 57 58
 144 578.00 25 26 27 28 29 30 47 48 49 50 51 52 53 54 55 56 57 58
 145 550.00 25 26 27 28 29 30 2 3 4
 146 546.00 25 26 27 28 29 30 31 51 52 53 54 55 56 57 58
 147 560.00 25 26 27 28 29 30 31 2 3 4
 148 566.00 25 26 27 28 29 30 31 32 51 52 53 54 55 56 57 58
 149 517.00 25 26 27 28 29 30 31 32 2 3
 150 580.00 25 26 27 28 29 30 31 32 2 3 4
 151 576.00 25 26 27 28 29 30 31 32 33 51 52 53 54 55 56 57 58
 152 527.00 25 26 27 28 29 30 31 32 33 2 3
 153 590.00 25 26 27 28 29 30 31 32 33 2 3 4
 154 578.00 60 61 62 63 64 65 66 67 68 69 70 71 2 3
 155 585.00 60 61 62 63 64 65 66 67 68 69 70 71 72 2 3
 156 569.00 61 62 63 64 65 66 67 68 69 70 71 2 3
 157 576.00 61 62 63 64 65 66 67 68 69 70 71 72 2 3
 158 545.00 62 63 64 65 66 47 48 49 50 51 52 53 54 55 56 57 58
 159 568.00 62 63 64 65 66 67 47 48 49 50 51 52 53 54 55 56 57 58
 160 575.00 62 63 64 65 66 67 68 47 48 49 50 51 52 53 54 55 56 57 58
 161 586.00 62 63 64 65 66 67 68 69 70 71 51 52 53 54 55 56 57 58
 162 537.00 62 63 64 65 66 67 68 69 70 71 2 3
 163 600.00 62 63 64 65 66 67 68 69 70 71 2 3 4
 164 544.00 62 63 64 65 66 67 68 69 70 71 72 2 3
 165 611.00 62 63 64 65 66 67 68 69 70 71 72 2 3 4
 166 542.00 63 64 65 66 67 47 48 49 50 51 52 53 54 55 56 57 58
 167 549.00 63 64 65 66 67 68 47 48 49 50 51 52 53 54 55 56 57 58
 168 560.00 63 64 65 66 67 68 69 70 71 51 52 53 54 55 56 57 58
 169 511.00 63 64 65 66 67 68 69 70 71 2 3
 170 574.00 63 64 65 66 67 68 69 70 71 2 3 4
 171 518.00 63 64 65 66 67 68 69 70 71 72 2 3
 172 581.00 63 64 65 66 67 68 69 70 71 72 2 3 4
 173 567.00 98 99 100 47 48 49 50 51 52 53 54 55 56 57 58
 174 571.00 98 99 100 101 47 48 49 50 51 52 53 54 55 56 57 58
 175 592.00 98 99 100 101 102 47 48 49 50 51 52 53 54 55 56 57 58
 176 602.00 98 99 100 101 102 103 47 48 49 50 51 52 53 54 55 56 57 58
 177 559.00 98 99 100 101 102 103 51 52 53 54 55 56 57 58
 178 580.00 98 99 100 101 102 103 104 51 52 53 54 55 56 57 58
 179 589.00 98 99 100 101 102 103 104 105 51 52 53 54 55 56 57 58
 180 540.00 98 99 100 101 102 103 104 105 2 3
 181 615.00 98 99 100 101 102 103 104 105 106 51 52 53 54 55 56 57 58
 182 561.00 98 99 100 101 102 103 104 105 106 2 3
 183 570.00 98 99 100 101 102 103 104 105 106 107 2 3
 184 551.00 137 138 139 45 46 47 48 49 50 51 52 53 54 55
 185 575.00 137 138 139 45 46 47 48 49 50 51 52 53 54 55 56
 186 592.00 137 138 139 45 46 47 48 49 50 51 52 53 54 55 56 57
 187 562.00 137 138 139 47 48 49 50 51 52 53 54 55 56 57
 188 574.00 137 138 139 140 173 174 175 176
 189 560.00 137 138 139 140 47 48 49 50 51 52 53 54 55
 190 584.00 137 138 139 140 47 48 49 50 51 52 53 54 55 56
 191 602.00 137 138 139 140 47 48 49 50 51 52 53 54 55 56 57
 192 540.00 138 139 140 47 48 49 50 51 52 53 54 55 56 57 58
 193 513.00 165 166 47 48 49 50 51 52 53 54 55 56 57 58
 194 510.00 165 166 167 51 52 53 54 55 56 57 58
 195 524.00 165 166 167 2 3 4
 196 574.00 165 166 167 14 15 16 17 18
 197 588.00 61 62 63 64 65 66 67 68 118 119 120 121 122 123 124 52 53 54 55 56 57
 198 588.00 61 62 63 64 65 66 67 68 118 119 120 121 122 123 124 125 126 54 55 56 57
 199 606.00 61 62 63 64 65 66 67 68 45 46 2 3
 200 529.00 61 62 63 64 65 66 67 68 69 70 71 118 119 120 121 122 123 124 52 53 54
 201 572.00 62 63 64 65 66 67 68 69 70 71 72 47 48 49 50 20
 202 623.00 62 63 64 65 66 67 68 69 70 71 72 124 125 126 3 4
 203 596.00 63 64 65 66 67 68 69 70 71 72 73 124 125 126 54 55 56 57 58
 204 562.00 98 99 100 101 102 103 104 118 119 120 121 122 123 124 52 53 54 55
 205 562.00 98 99 100 101 102 103 104 118 119 120 121 122 123 124 125 126 54 55
 206 552.00 138 139 140 141 142 47 48 49 50 20
 207 603.00 138 139 140 141 142 124 125 126 3 4
 208 535.00 165 166 167 118 119 120 121 122 20
 209 548.00 11 12 13 66 67 68 69 70 71 72 73 173 174 175 176
 210 548.00 11 12 13 101 102 103 104 105 106 107 108 173 174 175 176
 211 625.00 25 26 29 30 31 32 33 34 2 3 4
 212 625.00 25 26 27 30 31 32 33 34 2 3 4
 213 625.00 25 26 27 28 31 32 33 34 2 3 4
 214 625.00 25 26 27 28 29 32 33 34 2 3 4
 215 625.00 25 26 27 28 29 30 33 34 2 3 4
 216 585.00 60 61 62 63 64 65 66 67 167 173 174 175 176
 217 588.00 60 61 62 63 64 65 66 67 167 47 48 49 50 51 52 53 54 55 56
 218 574.00 61 62 63 64 65 66 67 167 173 174 175 176
 219 623.00 62 63 66 67 68 69 70 71 72 2 3 4
 220 626.00 62 63 64 65 101 102 103 104 105 106 107 2 3 4
 221 623.00 62 63 64 65 68 69 70 71 72 2 3 4
 222 626.00 62 63 64 65 66 102 103 104 105 106 107 2 3 4
 223 623.00 62 63 64 65 66 69 70 71 72 2 3 4
 224 553.00 62 63 64 65 66 67 167 45 46 47 48 49 50 51 52 53 54 55
 225 626.00 62 63 64 65 66 67 68 104 105 106 107 2 3 4
 226 609.00 63 64 27 28 29 30 31 32 33 34 2 3 4
 227 547.00 63 64 140 141 142 173 174 175 176
 228 551.00 63 64 140 141 142 47 48 49 50 51 52 53 54 55 56
 229 599.00 63 64 140 141 142 51 52 53 54 55 56 57 58
 230 621.00 63 64 140 141 142 2 3 4
 231 609.00 63 64 65 66 29 30 31 32 33 34 2 3 4
 232 615.00 63 64 65 66 67 141 142 2 3 4
 233 551.00 63 64 65 66 67 167 45 46 47 48 49 50 51 52 53 54 55 56
 234 609.00 63 64 65 66 67 68 31 32 33 34 2 3 4
 235 588.00 98 99 100 101 102 167 47 48 49 50 51 52 53 54 55 56 57
 236 606.00 138 139 68 69 70 71 72 73 2 3 4
 237 606.00 138 139 103 104 105 106 107 108 2 3 4
 238 552.00 138 139 167 45 46 47 48 49 50 51 52 53 54 55 56 57
 239 620.00 165 140 141 142 14 15 16 17 18
 240 480.00 21 22 23 24 188 189 190 191 192 193 194 195 196 197 198 199 200
 241 584.00 125 126 127 128 129 130 131 132 133 134 135 136 7 8 9 10
 242 549.00 127 128 129 130 131 132 133 134 135 136 7 8 9 10
 243 570.00 127 128 129 130 131 132 133 134 135 136 187 188 189 190 191 192 193 194 195 196 197 198 199 200
 244 542.00 150 151 152 153 7 8 9 10
 245 563.00 150 151 152 153 187 188 189 190 191 192 193 194 195 196 197 198 199 200
 246 566.00 150 151 152 153 154 188 189 190 191 192 193 194 195 196 197 198 199 200
 247 557.00 150 151 152 153 154 189 190 191 192 193 194 195 196 197 198 199 200
 248 550.00 150 151 152 153 154 190 191 192 193 194 195 196 197 198 199 200
 249 559.00 177 178 179 180 181 182 183 184 185 186 187 159 160 161 162 163 164
 250 579.00 14 15 16 17 18 155 156 157 158 9 10
 251 590.00 125 126 127 128 129 130 131 132 133 134 135 136 156 157 158 9 10
 252 584.00 125 126 127 128 129 130 131 132 133 134 135 136 187 188 8 9 10
 253 581.00 175 176 21 22 23 24 188 189 190 191 192 193 194 195 196 197 198 199 200
 254 491.00 60 61 62 63 64 65 73 74 75 76 77 78 79 80 81 82 83 84 85 86 87
 255 468.00 60 61 62 63 64 65 74 75 76 77 78 79 80 81 82 83 84 85 86 87
 256 498.00 60 61 62 63 64 65 66 73 74 75 76 77 78 79 80 81 82 83 84 85 86 87
 257 475.00 60 61 62 63 64 65 66 74 75 76 77 78 79 80 81 82 83 84 85 86 87
 258 498.00 60 61 62 63 64 65 66 67 74 75 76 77 78 79 80 81 82 83 84 85 86 87
 259 507.00 60 61 62 63 64 65 66 67 68 74 75 76 77 78 79 80 81 82 83 84 85 86 87
 260 486.00 61 62 63 64 65 73 74 75 76 77 78 79 80 81 82 83 84 85 86 87
 261 463.00 61 62 63 64 65 74 75 76 77 78 79 80 81 82 83 84 85 86 87
 262 493.00 61 62 63 64 65 66 73 74 75 76 77 78 79 80 81 82 83 84 85 86 87
 263 470.00 61 62 63 64 65 66 74 75 76 77 78 79 80 81 82 83 84 85 86 87
 264 524.00 61 62 63 64 65 66 67 73 74 75 76 77 78 79 80 81 82 83 84 85 86 87
 265 493.00 61 62 63 64 65 66 67 74 75 76 77 78 79 80 81 82 83 84 85 86 87
 266 500.00 61 62 63 64 65 66 67 68 74 75 76 77 78 79 80 81 82 83 84 85 86 87
 267 469.00 62 63 64 65 73 74 75 76 77 78 79 80 81 82 83 84 85 86 87
 268 446.00 62 63 64 65 74 75 76 77 78 79 80 81 82 83 84 85 86 87
 269 476.00 62 63 64 65 66 73 74 75 76 77 78 79 80 81 82 83 84 85 86 87
 270 453.00 62 63 64 65 66 74 75 76 77 78 79 80 81 82 83 84 85 86 87
 271 499.00 62 63 64 65 66 67 73 74 75 76 77 78 79 80 81 82 83 84 85 86 87
 272 476.00 62 63 64 65 66 67 74 75 76 77 78 79 80 81 82 83 84 85 86 87
 273 483.00 62 63 64 65 66 67 143 144 145 146 147 148
 274 483.00 62 63 64 65 66 67 68 74 75 76 77 78 79 80 81 82 83 84 85 86 87
 275 490.00 62 63 64 65 66 67 68 143 144 145 146 147 148
 276 462.00 63 64 65 66 73 74 75 76 77 78 79 80 81 82 83 84 85 86 87
 277 439.00 63 64 65 66 74 75 76 77 78 79 80 81 82 83 84 85 86 87
 278 485.00 63 64 65 66 67 73 74 75 76 77 78 79 80 81 82 83 84 85 86 87
 279 462.00 63 64 65 66 67 74 75 76 77 78 79 80 81 82 83 84 85 86 87
 280 469.00 63 64 65 66 67 143 144 145 146 147 148
 281 469.00 63 64 65 66 67 68 74 75 76 77 78 79 80 81 82 83 84 85 86 87
 282 476.00 63 64 65 66 67 68 143 144 145 146 147 148
 283 465.00 138 139 140 74 75 76 77 78 79 80 81 82 83 84 85 86 87
 284 472.00 138 139 140 143 144 145 146 147 148
 285 477.00 60 61 62 63 64 65 66 143 144 145 118 119 120 121 122 123
 286 427.00 60 61 62 63 64 65 66 143 144 145 45 46
 287 470.00 60 61 62 63 64 65 66 143 144 145 45 46 47 48 49 50
 288 500.00 60 61 62 63 64 65 66 67 143 144 145 118 119 120 121 122 123
 289 450.00 60 61 62 63 64 65 66 67 143 144 145 45 46
 290 493.00 60 61 62 63 64 65 66 67 143 144 145 45 46 47 48 49 50
 291 510.00 60 61 62 63 64 65 66 67 68 143 144 145 118 119 120 121 122 123
 292 457.00 60 61 62 63 64 65 66 67 68 143 144 145 45 46
 293 500.00 60 61 62 63 64 65 66 67 68 143 144 145 45 46 47 48 49 50
 294 472.00 61 62 63 64 65 66 143 144 145 118 119 120 121 122 123
 295 426.00 61 62 63 64 65 66 143 144 145 45 46
 296 465.00 61 62 63 64 65 66 143 144 145 45 46 47 48 49 50
 297 495.00 61 62 63 64 65 66 67 143 144 145 118 119 120 121 122 123
 298 445.00 61 62 63 64 65 66 67 143 144 145 45 46
 299 488.00 61 62 63 64 65 66 67 143 144 145 45 46 47 48 49 50
 300 503.00 61 62 63 64 65 66 67 68 143 144 145 118 119 120 121 122 123
 301 452.00 61 62 63 64 65 66 67 68 143 144 145 45 46
 302 495.00 61 62 63 64 65 66 67 68 143 144 145 45 46 47 48 49 50
 303 470.00 63 64 65 66 67 68 69 70 71 72 81 82 83 84 85 86 87 123 124
 304 493.00 63 64 65 66 67 68 69 70 71 72 73 81 82 83 84 85 86 87 123 124
 305 433.00 138 166 35 36 37 38 39 40 41 42 43 44 45 46
 306 476.00 138 166 35 36 37 38 39 40 41 42 43 44 45 46 47 48 49 50
 307 466.00 138 166 109 110 111 112 113 114 115 116 117 118 119 120 121 122
 308 475.00 138 166 109 110 111 112 113 114 115 116 117 118 119 120 121 122 123
 309 481.00 138 139 140 141 142 81 82 83 84 85 86 87 123 124
 310 465.00 31 32 33 34 35 36 37 38 39 40 41 42 43 44 51 52 53 54 55 56 57 58
 311 492.00 31 32 33 34 35 36 37 38 39 40 41 42 43 44 14 15 16 17 18
 312 529.00 32 33 34 35 36 37 38 39 40 41 42 43 44 88 89 90 91 92 93 94 95 96 97
 313 482.00 32 33 34 35 36 37 38 39 40 41 42 43 44 14 15 16 17 18
 314 504.00 33 34 35 36 37 38 39 40 41 42 43 44 88 89 90 91 92 93 94 95 96 97
 315 501.00 33 34 35 36 37 38 39 40 41 42 43 44 125 126 127 128 129 130 131 132 133 134 135 136
 316 538.00 33 34 35 36 37 38 39 40 41 42 43 44 45 46 125 126 127 128 129 130 131 132 133 134 135 136
 317 501.00 33 34 35 36 37 38 39 40 41 42 43 44 45 46 127 128 129 130 131 132 133 134 135 136
 318 494.00 34 35 36 37 38 39 40 41 42 43 44 88 89 90 91 92 93 94 95 96 97
 319 491.00 34 35 36 37 38 39 40 41 42 43 44 125 126 127 128 129 130 131 132 133 134 135 136
 320 523.00 34 35 36 37 38 39 40 41 42 43 44 45 46 125 126 127 128 129 130 131 132 133 134 135 136
 321 491.00 34 35 36 37 38 39 40 41 42 43 44 45 46 127 128 129 130 131 132 133 134 135 136
 322 501.00 35 36 37 38 39 40 41 42 43 44 45 46 125 126 127 128 129 130 131 132 133 134 135 136
 323 545.00 35 36 37 38 39 40 41 42 43 44 45 46 150 151 152 153 154
 324 525.00 45 46 47 48 49 50 51 52 53 54 55 56 5 6 7
 325 510.00 72 73 74 75 76 77 78 79 80 81 82 83 84 85 86 127 128 129 130 131 132 133 134 135 136
 326 503.00 73 74 75 76 77 78 79 80 81 82 83 84 85 86 127 128 129 130 131 132 133 134 135 136
 327 480.00 74 75 76 77 78 79 80 81 82 83 84 85 86 127 128 129 130 131 132 133 134 135 136
 328 554.00 74 75 76 77 78 79 80 81 82 83 84 85 86 150 151 152 153 154
 329 581.00 74 75 76 77 78 79 80 81 82 83 84 85 86 87 150 151 152 153 154
 330 522.00 105 106 107 108 109 110 111 112 113 114 115 116 117 88 89 90 91 92 93 94 95 96 97
 331 477.00 105 106 107 108 109 110 111 112 113 114 115 116 117 14 15 16 17 18
 332 471.00 105 106 107 108 109 110 111 112 113 114 115 116 117 118 51 52 53 54 55 56 57 58
 333 474.00 105 106 107 108 109 110 111 112 113 114 115 116 117 118 2 3 4
 334 498.00 105 106 107 108 109 110 111 112 113 114 115 116 117 118 14 15 16 17 18
 335 510.00 106 107 108 109 110 111 112 113 114 115 116 117 88 89 90 91 92 93 94 95 96 97
 336 468.00 106 107 108 109 110 111 112 113 114 115 116 117 14 15 16 17 18
 337 462.00 106 107 108 109 110 111 112 113 114 115 116 117 118 51 52 53 54 55 56 57 58
 338 465.00 106 107 108 109 110 111 112 113 114 115 116 117 118 2 3 4
 339 489.00 106 107 108 109 110 111 112 113 114 115 116 117 118 14 15 16 17 18
 340 468.00 107 108 109 110 111 112 113 114 115 116 117 118 14 15 16 17 18
 341 507.00 107 108 109 110 111 112 113 114 115 116 117 118 125 126 127 128 129 130 131 132 133 134 135 136
 342 498.00 108 109 110 111 112 113 114 115 116 117 118 125 126 127 128 129 130 131 132 133 134 135 136
 343 587.00 109 110 111 112 113 114 115 116 117 118 119 120 121 122 150 151 152 153 154
 344 466.00 141 142 143 144 145 47 48 49 50 51 52 53 54 55 56 57 58
 345 493.00 141 142 143 144 145 88 89 90 91 92 93 94 95 96 97
 346 590.00 143 144 145 146 147 148 3 4 5 6
 347 554.00 143 144 145 146 147 148 149 4 5 6
 348 525.00 146 147 148 149 177 178 179 180 181 182 183 184 185 186 187 188 189
 349 512.00 167 168 169 170 171 172 14 15 16 17 18
 350 505.00 168 169 170 171 172 125 126 127 128 129 130 131 132 133 134 135 136
 351 502.00 169 170 171 172 125 126 127 128 129 130 131 132 133 134 135 136
 352 540.00 33 34 35 36 37 38 39 40 41 42 43 44 45 46 175 176 4 5
 353 540.00 33 34 35 36 37 38 39 40 41 42 43 44 45 46 47 48 49 50 54 55 56 57 4 5
 354 541.00 34 35 36 37 38 39 40 41 42 43 44 45 46 175 176 21 22 23 24
 355 541.00 34 35 36 37 38 39 40 41 42 43 44 45 46 47 48 49 50 54 55 56 21 22 23 24
 356 534.00 72 73 74 75 76 77 78 79 80 81 82 83 84 85 86 52 53 54 55 56 57 4 5
 357 539.00 73 74 75 76 77 78 79 80 81 82 83 84 85 86 52 53 54 55 56 21 22 23 24
 358 585.00 81 82 83 84 85 86 51 52 53 177 178 179 180 181 182 183 184 185 186 187 188 189
 359 588.00 81 82 83 84 85 86 87 175 176 5 6 7
 360 537.00 105 106 107 35 36 37 38 39 40 41 42 43 44 88 89 90 91 92 93 94 95 96 97
 361 590.00 143 144 145 146 147 148 149 57 58 5 6
 362 532.00 167 35 36 37 38 39 40 41 42 43 44 88 89 90 91 92 93 94 95 96 97
 363 536.00 168 169 170 171 172 173 174 55 56 57 4 5
 364 544.00 169 170 171 172 52 53 54 21 22 23 24
 365 424.00 62 63 64 65 168 169 170 171 172
 366 422.00 63 64 65 66 168 169 170 171 172
 367 463.00 61 62 63 27 28 168 169 170 171 172
 368 474.00 61 62 63 66 67 168 169 170 171 172
 369 446.00 62 63 27 28 168 169 170 171 172
 370 456.00 62 63 27 28 29 168 169 170 171 172
 371 457.00 62 63 66 67 168 169 170 171 172
 372 442.00 63 27 28 29 168 169 170 171 172
 373 432.00 63 64 27 28 168 169 170 171 172
 374 440.00 60 61 62 63 64 65 168 169 170 171 172
 375 435.00 61 62 63 64 65 168 169 170 171 172
 376 425.00 62 63 64 65 66 168 169 170 171 172
 377 468.00 60 61 62 63 27 28 168 169 170 171 172
 378 479.00 60 61 62 63 66 67 168 169 170 171 172
 379 446.00 62 63 64 27 28 168 169 170 171 172
 380 442.00 63 64 27 28 29 168 169 170 171 172
 381 432.00 25 26 27 28 168 169 170 171 172
 382 447.00 60 61 62 63 64 65 66 168 169 170 171 172
 383 442.00 61 62 63 64 65 66 168 169 170 171 172
 384 462.00 61 62 63 64 65 66 67 169 170 171 172
 385 452.00 62 63 64 65 66 67 68 169 170 171 172
 386 446.00 63 64 65 66 72 73 74 75 76 77 78 79 80 81 82 83 84 85 86
 387 434.00 63 64 65 66 67 168 169 170 171 172
 388 476.00 138 139 140 35 36 37 38 39 40 41 42 43 44 45 46 47 48 49 50
 389 442.00 138 139 140 74 75 76 77 78 79 80 81 82 83 84 85 86
 390 468.00 60 61 62 63 64 27 28 168 169 170 171 172
 391 481.00 60 61 62 63 64 140 35 36 37 38 39 40 41 42 43 44 45 46
 392 463.00 61 62 63 64 27 28 168 169 170 171 172
 393 476.00 61 62 63 64 140 35 36 37 38 39 40 41 42 43 44 45 46
 394 456.00 62 63 64 27 28 29 168 169 170 171 172
 395 487.00 63 140 109 110 111 112 113 114 115 116 117 118 119 120 121 122 123
 396 467.00 25 26 27 28 72 73 74 75 76 77 78 79 80 81 82 83 84 85 86
 397 460.00 25 26 27 28 73 74 75 76 77 78 79 80 81 82 83 84 85 86
 398 442.00 25 26 27 28 29 168 169 170 171 172
 399 480.00 138 139 140 45 46 47 48 49 50 51 52 53 54 55 56
 400 497.00 138 139 140 45 46 47 48 49 50 51 52 53 54 55 56 57
 401 475.00 60 61 62 63 64 65 72 73 74 75 76 77 78 79 80 81 82 83 84 85 86
 402 482.00 60 61 62 63 64 65 66 72 73 74 75 76 77 78 79 80 81 82 83 84 85 86
 403 475.00 60 61 62 63 64 65 66 73 74 75 76 77 78 79 80 81 82 83 84 85 86
 404 474.00 60 61 62 63 64 65 66 67 68 169 170 171 172
 405 470.00 61 62 63 64 65 72 73 74 75 76 77 78 79 80 81 82 83 84 85 86
 406 477.00 61 62 63 64 65 66 72 73 74 75 76 77 78 79 80 81 82 83 84 85 86
 407 470.00 61 62 63 64 65 66 73 74 75 76 77 78 79 80 81 82 83 84 85 86
 408 469.00 61 62 63 64 65 66 67 68 169 170 171 172
 409 448.00 62 63 64 65 66 67 168 169 170 171 172
 410 462.00 63 64 65 66 67 73 74 75 76 77 78 79 80 81 82 83 84 85 86
 411 478.00 60 61 62 63 64 27 28 29 168 169 170 171 172
 412 482.00 60 61 62 63 64 65 66 67 108 109 110 111 112 113 114 115 116 117 45 46
 413 473.00 61 62 63 64 27 28 29 168 169 170 171 172
 414 502.00 62 63 140 109 110 111 112 113 114 115 116 117 118 119 120 121 122 123
 415 474.00 63 64 27 28 29 109 110 111 112 113 114 115 116 117 118 119 120 121 122 123
 416 487.00 63 64 140 109 110 111 112 113 114 115 116 117 118 119 120 121 122 123
 417 484.00 138 139 29 30 109 110 111 112 113 114 115 116 117 118 119 120 121 122 123
 418 470.00 25 26 27 28 29 73 74 75 76 77 78 79 80 81 82 83 84 85 86
 419 461.00 98 99 100 101 102 168 169 170 171 172
 420 484.00 25 26 140 109 110 111 112 113 114 115 116 117 118 119 120 121 122
 421 493.00 25 26 140 109 110 111 112 113 114 115 116 117 118 119 120 121 122 123
 422 508.00 98 99 100 101 102 45 46 47 48 49 50 51 52 53 54 55
 423 532.00 98 99 100 101 102 45 46 47 48 49 50 51 52 53 54 55 56
 424 549.00 98 99 100 101 102 45 46 47 48 49 50 51 52 53 54 55 56 57
 425 517.00 98 99 100 101 102 103 45 46 47 48 49 50 51 52 53 54 55
 426 541.00 98 99 100 101 102 103 45 46 47 48 49 50 51 52 53 54 55 56
 427 558.00 98 99 100 101 102 103 45 46 47 48 49 50 51 52 53 54 55 56 57
 428 508.00 98 99 100 101 102 103 104 47 48 49 50 51 52 53 54 55
 429 532.00 98 99 100 101 102 103 104 47 48 49 50 51 52 53 54 55 56
 430 549.00 98 99 100 101 102 103 104 47 48 49 50 51 52 53 54 55 56 57
 431 476.00 98 99 100 101 102 103 104 105 45 46 47 48 49 50 51 52 53 54
 432 551.00 98 99 100 101 102 103 104 105 45 46 47 48 49 50 51 52 53 54 55
 433 517.00 98 99 100 101 102 103 104 105 47 48 49 50 51 52 53 54 55
 434 541.00 98 99 100 101 102 103 104 105 47 48 49 50 51 52 53 54 55 56
 435 558.00 98 99 100 101 102 103 104 105 47 48 49 50 51 52 53 54 55 56 57
 436 493.00 60 61 62 63 64 65 108 109 110 111 112 113 114 115 116 117 118 119 120 121 122
 437 470.00 60 61 62 63 64 65 66 67 168 169 170 171 172
 438 488.00 61 62 63 64 65 108 109 110 111 112 113 114 115 116 117 118 119 120 121 122
 439 465.00 61 62 63 64 65 66 67 168 169 170 171 172
 440 493.00 61 62 63 64 65 66 67 73 74 75 76 77 78 79 80 81 82 83 84 85 86
 441 478.00 62 63 64 65 66 108 109 110 111 112 113 114 115 116 117 118 119 120 121 122
 442 476.00 62 63 64 65 66 67 73 74 75 76 77 78 79 80 81 82 83 84 85 86
 443 489.00 62 63 64 65 66 67 109 110 111 112 113 114 115 116 117 118 119 120 121 122 123
 444 482.00 63 64 65 66 67 68 109 110 111 112 113 114 115 116 117 118 119 120 121 122 123
 445 469.00 138 139 140 109 110 111 112 113 114 115 116 117 118 119 120 121 122
 446 478.00 138 139 140 109 110 111 112 113 114 115 116 117 118 119 120 121 122 123
 447 500.00 60 61 62 63 64 27 28 109 110 111 112 113 114 115 116 117 118 119 120 121 122 123
 448 495.00 61 62 63 64 27 28 109 110 111 112 113 114 115 116 117 118 119 120 121 122 123
 449 488.00 62 63 64 27 28 29 109 110 111 112 113 114 115 116 117 118 119 120 121 122 123
 450 502.00 62 63 64 140 109 110 111 112 113 114 115 116 117 118 119 120 121 122 123
 451 484.00 63 64 65 101 102 103 109 110 111 112 113 114 115 116 117 118 119 120 121 122 123
 452 485.00 25 26 27 28 108 109 110 111 112 113 114 115 116 117 118 119 120 121 122
 453 489.00 98 99 100 101 102 73 74 75 76 77 78 79 80 81 82 83 84 85 86
 454 493.00 25 26 66 67 108 109 110 111 112 113 114 115 116 117 118 119 120 121 122
 455 494.00 25 26 140 35 36 37 38 39 40 41 42 43 44 45 46 47 48 49 50
 456 522.00 98 99 100 101 102 103 104 173 174 175 176
 457 552.00 63 66 67 68 69 70 71 72 73 173 174 175 176
 458 500.00 60 61 62 63 64 65 66 108 109 110 111 112 113 114 115 116 117 118 119 120 121 122
 459 498.00 60 61 62 63 64 65 66 67 73 74 75 76 77 78 79 80 81 82 83 84 85 86
 460 516.00 60 61 62 63 64 65 66 67 109 110 111 112 113 114 115 116 117 118 119 120 121 122 123
 461 495.00 61 62 63 64 65 66 108 109 110 111 112 113 114 115 116 117 118 119 120 121 122
 462 509.00 61 62 63 64 65 66 67 109 110 111 112 113 114 115 116 117 118 119 120 121 122 123
 463 519.00 61 62 63 64 65 66 67 68 109 110 111 112 113 114 115 116 117 118 119 120 121 122 123
 464 496.00 62 63 64 65 66 67 68 109 110 111 112 113 114 115 116 117 118 119 120 121 122 123
 465 487.00 63 64 65 66 67 108 109 110 111 112 113 114 115 116 117 118 119 120 121 122
 466 514.00 60 61 62 63 64 27 28 29 109 110 111 112 113 114 115 116 117 118 119 120 121 122 123
 467 507.00 61 62 63 64 27 28 29 109 110 111 112 113 114 115 116 117 118 119 120 121 122 123
 468 513.00 62 63 64 27 28 29 30 109 110 111 112 113 114 115 116 117 118 119 120 121 122 123
 469 498.00 62 63 64 65 101 102 103 109 110 111 112 113 114 115 116 117 118 119 120 121 122 123
 470 498.00 62 63 64 65 66 102 103 109 110 111 112 113 114 115 116 117 118 119 120 121 122 123
 471 513.00 62 63 64 65 66 29 30 109 110 111 112 113 114 115 116 117 118 119 120 121 122 123
 472 494.00 63 64 27 28 29 30 109 110 111 112 113 114 115 116 117 118 119 120 121 122 123
 473 484.00 63 64 65 66 102 103 109 110 111 112 113 114 115 116 117 118 119 120 121 122 123
 474 494.00 63 64 65 66 29 30 109 110 111 112 113 114 115 116 117 118 119 120 121 122 123
 475 493.00 138 139 140 109 110 111 112 113 114 115 116 117 118 173 174
 476 495.00 25 26 27 28 29 108 109 110 111 112 113 114 115 116 117 118 119 120 121 122
 477 506.00 25 26 27 28 29 30 109 110 111 112 113 114 115 116 117 118 119 120 121 122 123
 478 515.00 98 99 100 67 68 35 36 37 38 39 40 41 42 43 44 45 46 47 48 49 50
 479 518.00 98 99 100 101 29 30 109 110 111 112 113 114 115 116 117 118 119 120 121 122
 480 515.00 61 62 63 64 65 66 67 68 69 70 71 72 45 46 47 48 49 50 51 52 53 54
 481 497.00 98 99 100 101 102 103 104 105 106 45 46 47 48 49 50 51 52 53 54
 482 508.00 98 99 100 101 102 103 104 105 106 107 45 46 47 48 49 50 51 52 53 54
 483 558.00 61 62 63 64 65 66 67 68 69 70 71 72 47 48 49 50 51 52 53 54 55
 484 521.00 62 63 64 65 66 67 68 69 70 71 72 47 48 49 50 51 52 53 54 55
 485 548.00 62 63 64 65 66 67 68 69 70 71 72 47 48 49 50 51 52 53 54 55 56
 486 569.00 62 63 64 65 66 67 68 69 70 71 72 47 48 49 50 51 52 53 54 55 56 57
 487 509.00 63 64 65 66 67 68 69 70 71 72 173 174 175 176
 488 531.00 98 99 100 101 102 103 104 105 173 174 175 176
 489 538.00 98 99 100 101 102 103 104 105 106 47 48 49 50 51 52 53 54 55
 490 567.00 98 99 100 101 102 103 104 105 106 47 48 49 50 51 52 53 54 55 56
 491 552.00 25 26 27 28 29 30 31 32 33 119 120 121 122 123 175 176
 492 543.00 63 64 65 66 67 68 69 70 71 72 119 120 121 122 123 175 176
 493 552.00 25 26 27 30 31 32 33 34 173 174 175 176
 494 552.00 25 26 27 28 31 32 33 34 173 174 175 176
 495 552.00 25 26 27 28 29 32 33 34 173 174 175 176
 496 552.00 25 26 27 28 29 30 33 34 173 174 175 176
 497 552.00 63 64 65 68 69 70 71 72 73 173 174 175 176
 498 552.00 63 64 65 66 69 70 71 72 73 173 174 175 176
 499 579.00 98 99 100 101 68 69 70 71 72 173 174 175 176
 500 582.00 98 99 100 101 104 105 106 107 173 174 175 176
 501 582.00 98 99 100 101 102 105 106 107 173 174 175 176
 502 582.00 98 99 100 101 102 103 106 107 173 174 175 176
 503 502.00 62 63 64 65 66 67 108 109 110 111 112 113 114 115 116 117 118 119 120 121 122
 504 522.00 61 62 63 64 65 101 102 103 109 110 111 112 113 114 115 116 117 118 119 120 121 122 123
 505 522.00 61 62 63 64 65 66 102 103 109 110 111 112 113 114 115 116 117 118 119 120 121 122 123
 506 521.00 98 99 100 101 102 108 109 110 111 112 113 114 115 116 117 118 119 120 121 122
 507 532.00 63 64 65 66 67 68 69 70 71 72 45 46 47 48 49 50 51 52 53 54 55
 508 521.00 63 64 65 66 67 68 69 70 71 72 73 47 48 49 50 51 52 53 54 55
 509 526.00 25 26 27 28 29 30 31 32 33 34 47 48 49 50 51 52 53 54 55
 510 555.00 25 26 27 28 29 30 31 32 33 34 47 48 49 50 51 52 53 54 55 56
 511 569.00 60 61 62 63 64 65 66 67 68 69 70 71 72 47 48 49 50 51 52 53 54 55
 512 565.00 61 62 63 64 65 66 67 68 69 70 71 173 174 175 176
 513 536.00 62 63 64 65 66 67 68 69 70 71 72 173 174 175 176
 514 551.00 98 99 100 101 102 103 104 105 106 107 47 48 49 50 51 52 53 54 55
 515 588.00 60 61 62 63 64 27 28 29 30 31 32 33 173 174 175 176
 516 589.00 60 61 62 63 64 65 101 102 103 104 105 106 173 174 175 176
 517 589.00 60 61 62 63 64 65 66 102 103 104 105 106 173 174 175 176
 518 588.00 60 61 62 63 64 65 66 29 30 31 32 33 173 174 175 176
 519 589.00 60 61 62 63 64 65 66 67 68 104 105 106 173 174 175 176
 520 588.00 60 61 62 63 64 65 66 67 68 31 32 33 173 174 175 176
 521 578.00 61 62 63 64 65 101 102 103 104 105 106 173 174 175 176
 522 578.00 61 62 63 64 65 66 102 103 104 105 106 173 174 175 176
 523 578.00 61 62 63 64 65 66 67 68 104 105 106 173 174 175 176
 524 567.00 62 63 64 27 28 29 30 31 32 33 34 173 174 175 176
 525 567.00 62 63 64 65 66 29 30 31 32 33 34 173 174 175 176
 526 567.00 62 63 64 65 66 67 68 31 32 33 34 173 174 175 176
 527 560.00 63 64 27 28 29 30 31 32 45 46 47 48 49 50 51 52 53 54 55 56 57
 528 560.00 63 64 27 28 29 30 31 32 33 34 47 48 49 50 51 52 53 54 55 56 57
 529 539.00 63 64 65 66 67 68 104 105 106 107 45 46 47 48 49 50 51 52 53 54 55
 530 543.00 25 26 27 28 29 30 31 32 33 34 173 174 175 176
 531 538.00 63 64 65 66 67 68 69 70 71 72 73 173 174 175 176
 532 576.00 60 61 62 63 64 65 66 67 68 69 70 71 173 174 175 176
 533 555.00 98 99 100 101 102 103 104 105 106 173 174 175 176
 534 568.00 98 99 100 101 102 103 104 105 106 107 173 174 175 176
 535 552.00 63 64 65 101 102 103 104 105 106 107 108 173 174 175 176
 536 552.00 63 64 65 66 102 103 104 105 106 107 108 173 174 175 176
 537 552.00 63 64 65 66 67 68 104 105 106 107 108 173 174 175 176
 538 579.00 98 99 100 67 68 69 70 71 72 173 174 175 176
 539 579.00 98 99 100 101 102 69 70 71 72 173 174 175 176
